58363.2
0 66 63 1 64 65 69 70 126 127 67 68 60 61 62 2 3 59 58 57 74 73 123 122 124 125 71 72 75 56 55 54 4 5 53 52 51 78 77 119 118 121 120 76 80 79 50 49 48 6 7 47 46 45 82 81 115 114 117 116 112 84 83 44 43 42 8 9 39 40 41 85 86 110 111 113 108 109 87 88 36 37 38 10 11 33 34 35 89 90 106 107 104 105 91 92 30 31 32 12 14 13 15 29 28 27 26 25 22 16 23 24 94 95 102 103 100 101 96 97 19 20 21 17 18 98 99 93 131 130 129 128 263 262 261 226 227 228 207 208 144 145 146 147 148 149 205 206 229 230 231 232 233 234 203 204 150 151 152 153 154 155 201 202 235 236 237 238 239 240 199 200 156 157 158 159 160 161 197 198 241 242 243 244 245 246 195 196 162 163 164 165 166 167 193 194 247 248 249 250 251 252 191 192 168 169 170 171 132 172 173 174 175 176 177 179 178 180 188 189 253 254 255 256 257 258 186 187 181 182 183 184 185 259 190 260 225 224 223 210 209 143 142 141 140 139 138 212 211 222 221 220 219 218 217 214 213 137 136 135 134 133 215 216 
